
Gurobi 11.0.1 (win64) logging started Thu May 16 18:43:36 2024

Set parameter LogFile to value "output/solver_log11.txt"
Gurobi Optimizer version 11.0.1 build v11.0.1rc0 (win64 - Windows 11.0 (22631.2))

CPU model: 11th Gen Intel(R) Core(TM) i7-1165G7 @ 2.80GHz, instruction set [SSE2|AVX|AVX2|AVX512]
Thread count: 4 physical cores, 8 logical processors, using up to 8 threads

Optimize a model with 4872 rows, 1182 columns and 90031 nonzeros
Model fingerprint: 0xa2e2974b
Variable types: 568 continuous, 614 integer (614 binary)
Coefficient statistics:
  Matrix range     [4e-01, 1e+05]
  Objective range  [1e+00, 1e+02]
  Bounds range     [1e+00, 1e+00]
  RHS range        [1e-02, 1e+05]

User MIP start produced solution with objective 40180.3 (0.01s)
User MIP start produced solution with objective 40180.3 (0.01s)
Loaded user MIP start with objective 40180.3

Presolve removed 810 rows and 409 columns
Presolve time: 0.10s
Presolved: 4062 rows, 773 columns, 76818 nonzeros
Variable types: 528 continuous, 245 integer (241 binary)

Root relaxation: objective 4.816091e+04, 1414 iterations, 0.08 seconds (0.15 work units)

    Nodes    |    Current Node    |     Objective Bounds      |     Work
 Expl Unexpl |  Obj  Depth IntInf | Incumbent    BestBd   Gap | It/Node Time

     0     0 48160.9089    0   38 40180.2850 48160.9089  19.9%     -    0s
     0     0 47400.0035    0   51 40180.2850 47400.0035  18.0%     -    0s
     0     0 47227.7158    0   50 40180.2850 47227.7158  17.5%     -    0s
     0     0 47038.5183    0   60 40180.2850 47038.5183  17.1%     -    0s
     0     0 46425.8470    0   61 40180.2850 46425.8470  15.5%     -    0s
     0     0 46425.8470    0   62 40180.2850 46425.8470  15.5%     -    0s
     0     0 46425.8470    0   63 40180.2850 46425.8470  15.5%     -    0s
     0     0 46425.8470    0   66 40180.2850 46425.8470  15.5%     -    1s
     0     0 46425.8470    0   70 40180.2850 46425.8470  15.5%     -    1s
     0     0 46425.8470    0   74 40180.2850 46425.8470  15.5%     -    1s
     0     0 46425.8470    0   73 40180.2850 46425.8470  15.5%     -    1s
     0     0 46273.5956    0   69 40180.2850 46273.5956  15.2%     -    1s
     0     0 46085.8277    0   66 40180.2850 46085.8277  14.7%     -    1s
     0     0 46075.3265    0   74 40180.2850 46075.3265  14.7%     -    1s
     0     0 46075.3265    0   73 40180.2850 46075.3265  14.7%     -    1s
     0     0 46075.3265    0   75 40180.2850 46075.3265  14.7%     -    1s
     0     0 45734.2475    0   74 40180.2850 45734.2475  13.8%     -    1s
     0     0 45731.9011    0   75 40180.2850 45731.9011  13.8%     -    1s
     0     0 45731.9011    0   71 40180.2850 45731.9011  13.8%     -    1s
     0     0 45711.9668    0   71 40180.2850 45711.9668  13.8%     -    1s
     0     0 45627.5030    0   72 40180.2850 45627.5030  13.6%     -    1s
     0     0 45627.5030    0   71 40180.2850 45627.5030  13.6%     -    2s
     0     0 45574.9340    0   72 40180.2850 45574.9340  13.4%     -    2s
     0     0 45574.9340    0   72 40180.2850 45574.9340  13.4%     -    2s
     0     0 45495.4842    0   70 40180.2850 45495.4842  13.2%     -    2s
     0     0 45495.4842    0   69 40180.2850 45495.4842  13.2%     -    2s
     0     2 45495.4842    0   69 40180.2850 45495.4842  13.2%     -    2s
   114    80 41118.5148   10   26 40180.2850 44255.9513  10.1%   391    5s
H  200   121                    40198.081508 43547.8464  8.33%   419    6s
H  236   129                    40199.255145 43547.8464  8.33%   418    7s
   613   322 41763.0936   10   38 40199.2551 42685.1835  6.18%   287   10s
   852   351 40659.8140   10   31 40199.2551 42338.4923  5.32%   339   16s
H  959   358                    40199.313408 42101.5557  4.73%   345   18s
  1078   396     cutoff   12      40199.3134 41981.0106  4.43%   344   20s
  1301   387 40247.3571   13   22 40199.3134 41831.7594  4.06%   383   25s
  1532   332     cutoff   14      40199.3134 41448.6425  3.11%   414   30s
  1935   208     cutoff   10      40199.3134 40898.0731  1.74%   428   35s
H 2015   175                    40201.191147 40679.7702  1.19%   430   38s
  2268   376     cutoff   17      40201.1911 40373.3358  0.43%   398   40s
  9345  1234 40205.8591 2223    6 40201.1911 40292.0034  0.23%   105   45s
 27203  1320 40217.8093   83   69 40201.1911 40227.5405  0.07%  36.3   54s
 27207  1323 40206.7650   32   69 40201.1911 40227.5405  0.07%  36.3   55s
 27331  1330 40227.5405   21   26 40201.1911 40227.5405  0.07%  39.1   60s

Cutting planes:
  Implied bound: 8
  MIR: 50
  RLT: 1

Explored 27339 nodes (1080163 simplex iterations) in 60.02 seconds (126.53 work units)
Thread count was 8 (of 8 available processors)

Solution count 5: 40201.2 40199.3 40199.3 ... 40180.3

Time limit reached
Best objective 4.020119114664e+04, best bound 4.022754049274e+04, gap 0.0655%
